
<<< setup


<<< generate

CPXPARAM_TimeLimit                               2
Tried aggregator 1 time.
MIP Presolve eliminated 19 rows and 19 columns.
Reduced MIP has 441 rows, 781 columns, and 2304 nonzeros.
Reduced MIP has 400 binaries, 381 generals, 0 SOSs, and 0 indicators.
Presolve time = 0,00 sec. (1,39 ticks)
Probing fixed 19 vars, tightened 0 bounds.
Probing time = 0,01 sec. (3,11 ticks)
Cover probing fixed 0 vars, tightened 361 bounds.
Tried aggregator 1 time.
MIP Presolve eliminated 21 rows and 39 columns.
MIP Presolve modified 362 coefficients.
Reduced MIP has 420 rows, 742 columns, and 2206 nonzeros.
Reduced MIP has 381 binaries, 361 generals, 0 SOSs, and 0 indicators.
Presolve time = 0,00 sec. (2,40 ticks)
Probing time = 0,00 sec. (2,68 ticks)
Clique table members: 40.
MIP emphasis: balance optimality and feasibility.
MIP search method: dynamic search.
Parallel mode: deterministic, using up to 4 threads.
Root relaxation solution time = 0,00 sec. (3,64 ticks)

        Nodes                                         Cuts/
   Node  Left     Objective  IInf  Best Integer    Best Bound    ItCnt     Gap

*     0+    0                          103,2623        0,0000           100,00%
      0     0       35,1070    54      103,2623       35,1070      240   66,00%
      0     0       38,3868    69      103,2623      Cuts: 68      351   62,83%
*     0+    0                           47,3162       38,3868            18,87%
      0     0       40,1373    85       47,3162      Cuts: 40      477   15,17%
      0     0       41,1705    80       47,3162      Cuts: 27      678   12,99%
      0     0       41,9123    70       47,3162      Cuts: 26      904   11,42%
*     0+    0                           44,0968       41,9123             4,95%
      0     0       42,3614    93       44,0968      Cuts: 29     1087    3,94%
*     0+    0                           43,1038       42,3614             1,72%

Repeating presolve.
Tried aggregator 2 times.
MIP Presolve eliminated 241 rows and 497 columns.
MIP Presolve modified 15 coefficients.
Aggregator did 32 substitutions.
Reduced MIP has 147 rows, 213 columns, and 794 nonzeros.
Reduced MIP has 93 binaries, 120 generals, 0 SOSs, and 0 indicators.
Presolve time = 0,00 sec. (1,01 ticks)
Probing time = 0,00 sec. (0,29 ticks)
Tried aggregator 1 time.
Reduced MIP has 147 rows, 213 columns, and 794 nonzeros.
Reduced MIP has 93 binaries, 120 generals, 0 SOSs, and 0 indicators.
Presolve time = 0,00 sec. (0,55 ticks)
Represolve time = 0,01 sec. (3,95 ticks)
Probing time = 0,00 sec. (0,29 ticks)
Clique table members: 36.
MIP emphasis: balance optimality and feasibility.
MIP search method: dynamic search.
Parallel mode: deterministic, using up to 4 threads.
Root relaxation solution time = 0,00 sec. (3,44 ticks)

        Nodes                                         Cuts/
   Node  Left     Objective  IInf  Best Integer    Best Bound    ItCnt     Gap

*     0+    0                           43,1038       42,3614             1,72%
      0     0       42,3614    80       43,1038       42,3614     1402    1,72%
      0     0       42,6383    84       43,1038      Cuts: 30     1464    1,08%
      0     0       42,7903    77       43,1038      Cuts: 38     1535    0,73%
      0     0       43,0379    72       43,1038      Cuts: 35     1581    0,15%
      0     0        cutoff             43,1038       43,1038     1581    0,00%
Elapsed time = 0,49 sec. (286,38 ticks, tree = 0,01 MB, solutions = 4)

Cover cuts applied:  5
Implied bound cuts applied:  8
Flow cuts applied:  14
Mixed integer rounding cuts applied:  6
Zero-half cuts applied:  5
Multi commodity flow cuts applied:  4
Lift and project cuts applied:  6
Gomory fractional cuts applied:  1

Root node processing (before b&c):
  Real time             =    0,49 sec. (286,42 ticks)
Parallel b&c, 4 threads:
  Real time             =    0,00 sec. (0,00 ticks)
  Sync time (average)   =    0,00 sec.
  Wait time (average)   =    0,00 sec.
                          ------------
Total (root+branch&cut) =    0,49 sec. (286,42 ticks)

<<< solve


OBJECTIVE: 43.10383
12/18/2018 23:52:27 163
solving time ~= 492.055908203
Done
 [[0 0 0 10 0 0 0 0 0 0 0 0 0 0 0 0 0 0 0 0]
         [0 0 8 0 0 0 0 0 0 0 0 0 0 0 0 0 0 0 0 0]
         [0 0 0 0 7 0 0 0 0 0 0 0 0 0 0 0 0 0 0 0]
         [0 9 0 0 0 0 0 0 0 0 0 0 0 0 0 0 0 0 0 0]
         [0 0 0 0 0 0 0 6 0 0 0 0 0 0 0 0 0 0 0 0]
         [11 0 0 0 0 0 0 0 0 0 0 0 0 0 0 0 0 0 0 0]
         [0 0 0 0 0 12 0 0 0 0 0 0 0 0 0 0 0 0 0 0]
         [0 0 0 0 0 0 0 0 0 0 5 0 0 0 0 0 0 0 0 0]
         [0 0 0 0 0 0 13 0 0 0 0 0 0 0 0 0 0 0 0 0]
         [0 0 0 0 0 0 0 0 0 0 0 0 17 0 0 0 0 0 0 0]
         [0 0 0 0 0 0 0 0 0 0 0 0 0 0 4 0 0 0 0 0]
         [0 0 0 0 0 0 0 0 14 0 0 0 0 0 0 0 0 0 0 0]
         [0 0 0 0 0 0 0 0 0 0 0 0 0 0 0 16 0 0 0 0]
         [0 0 0 0 0 0 0 0 0 18 0 0 0 0 0 0 0 0 0 0]
         [0 0 0 0 0 0 0 0 0 0 0 0 0 0 0 0 3 0 0 0]
         [0 0 0 0 0 0 0 0 0 0 0 15 0 0 0 0 0 0 0 0]
         [0 0 0 0 0 0 0 0 0 0 0 0 0 0 0 0 0 2 0 0]
         [0 0 0 0 0 0 0 0 0 0 0 0 0 0 0 0 0 0 1 0]
         [0 0 0 0 0 0 0 0 0 0 0 0 0 0 0 0 0 0 0 20]
         [0 0 0 0 0 0 0 0 0 0 0 0 0 19 0 0 0 0 0 0]]

<<< post process


<<< done

